3rdParty/bipe/instanceTest/cnf7.cnf
p cnf 3 4
-2 -1 3 0
2 1 3 0
2 -1 -3 0
-2 1 -3 0
c p show 1 3 0

